benchmark_str_length/p2_10_11-4.txt
{
	"num_strings": 10,
	"alphabet": "ACGT",
	"strings": [
		"TCTCTGGTAGG",
		"CGATA",
		"GT",
		"TG",
		"CGTCCAGGG",
		"TAGAACAGA",
		"CTGGAGGCAC",
		"CGGAGGGGC",
		"ACCT",
		"GTTTTTTGCAG"
	],
	"str_length":[11,5,2,2,9,9,10,9,4,11]
}